NAME: kroA100
TYPE: TSP
COMMENT: 100-city problem A (Krolak/Felts/Nelson)
DIMENSION: 100
EDGE_WEIGHT_TYPE : EUC_2D
NODE_COORD_SECTION
1 1380 939
2 984 965
3 738 1325
4 1286 525
5 800 500
6 457 334
7 2848 96
8 3500 600
9 3888 666
10 3510 1671
EOF